NAME : ct_5_n_3_k10_t_70
COMMENT : (ct_5_n_3_k10_t_70, Min no of trucks: 3, Optimal value: 638.865377536405, Split: Yes)
TYPE : SDVRP
DIMENSION : 6
EDGE_WEIGHT_TYPE : EUC_2D
CAPACITY : 10
NODE_COORD_SECTION
1 100 100
2 116 147
3 162 21
4 30 50
5 49 136
6 135 32
DEMAND_SECTION
1 0
2 4.6
3 5.7
4 3.5
5 3.1
6 4.2
DEPOT_SECTION
 1
EOF